p cnf 15 24
-15 -13 -5 0
15 11 -8 0
15 4 2 0
-14 -11 5 0
-14 9 -4 0
14 5 -4 0
13 -11 8 0
13 10 -4 0
-13 -8 4 0
13 -6 4 0
-13 -4 -3 0
13 -4 1 0
12 -10 -6 0
-12 -9 -6 0
12 6 -5 0
11 6 3 0
10 -5 -2 0
8 7 4 0
-8 5 -1 0
8 -3 -2 0
7 -4 3 0
7 3 2 0
-7 -3 -2 0
-6 4 3 0
